250
50
139	103
166	99
88	74
174	139
128	109
175	179
62	82
178	87
121	77
125	97
73	84
69	97
122	159
66	69
111	118
165	86
71	83
163	162
67	132
121	152
68	150
138	124
141	105
183	122
171	63
101	64
103	95
110	107
184	158
85	97
86	92
127	155
92	147
106	97
177	108
164	150
68	84
62	151
123	134
158	178
70	140
173	117
147	136
141	145
84	164
144	141
92	103
156	98
160	111
127	131
